c description: tiling of 
c generator: CNFgen (0.9.0)
c copyright: (C) 2012-2020 Massimo Lauria <massimo.lauria@uniroma1.it>
c url: https://massimolauria.net/cnfgen
c
p cnf 10 44
-1 -2 0
-1 -6 0
-2 -6 0
1 2 6 0
-1 -4 0
-1 -10 0
-4 -10 0
1 4 10 0
-1 -6 0
-1 -10 0
-6 -10 0
1 6 10 0
-2 -3 0
-2 -7 0
-2 -8 0
-2 -9 0
-3 -7 0
-3 -8 0
-3 -9 0
-7 -8 0
-7 -9 0
-8 -9 0
2 3 7 8 9 0
-2 -4 0
-2 -6 0
-2 -7 0
-4 -6 0
-4 -7 0
-6 -7 0
2 4 6 7 0
-2 -4 0
-2 -10 0
-4 -10 0
2 4 10 0
-3 -7 0
3 7 0
-5 -7 0
-5 -8 0
-7 -8 0
5 7 8 0
-5 -8 0
5 8 0
-7 -9 0
7 9 0